50
    1    28    37
    2    50    53
    3    66    75
    4    72    72
    5    66    65
    6    25    19
    7    44    54
    8    62    57
    9    31    26
   10    73    67
   11    54    57
   12    69    68
   13    57    53
   14    14    17
   15    86    94
   16    24    14
   17    52    58
   18    96    93
   19    47    38
   20    12    15
   21    80    70
   22    38    45
   23     1     5
   24    26    32
   25    31    38
   26    12    21
   27    42    35
   28    61    65
   29    83    83
   30    20    16
   31    13     3
   32    39    29
   33    71    77
   34    95    98
   35     1     1
   36    14    10
   37    34    29
   38    14    14
   39    16    21
   40    66    56
   41    80    76
   42    98    95
   43    38    31
   44    53    43
   45    63    60
   46    53    56
   47    82    79
   48    61    55
   49    86    88
   50    34    33
1597
